c Random generated cnf formula, satisfiable: true
p cnf 10 50
8 3 -1 0
7 9 -5 0
6 -8 9 0
8 -7 9 0
-7 -1 8 0
-4 6 -8 0
-9 -3 10 0
-10 3 -9 0
-6 -9 7 0
5 3 4 0
10 3 1 0
-1 -5 -2 0
4 8 -2 0
1 -6 10 0
-9 8 -3 0
9 3 -1 0
-8 -10 5 0
-5 -8 3 0
2 8 -6 0
10 3 -4 0
8 -10 4 0
10 -6 -2 0
-1 3 4 0
3 2 4 0
3 7 -6 0
3 -10 -6 0
3 9 6 0
-8 -10 3 0
-8 7 -2 0
-5 -8 7 0
-6 3 -9 0
2 -7 -5 0
-6 -7 -5 0
7 1 -9 0
9 -4 -7 0
2 -6 8 0
1 -4 3 0
-9 -5 -10 0
-5 6 1 0
2 -7 -5 0
10 7 2 0
8 -1 7 0
-10 8 -9 0
2 5 10 0
1 4 2 0
-4 -5 7 0
-1 9 7 0
4 1 10 0
6 1 -3 0
1 -9 10 0
